
Gurobi 5.5.0 (mac64) logging started Tue Nov 12 16:26:30 2013


Gurobi 5.5.0 (mac64) logging started Tue Nov 12 16:27:53 2013


Gurobi 5.5.0 (mac64) logging started Tue Nov 12 16:29:10 2013


Gurobi 5.5.0 (mac64) logging started Tue Nov 12 16:29:40 2013


Gurobi 5.5.0 (mac64) logging started Tue Nov 12 16:30:01 2013


Gurobi 5.5.0 (mac64) logging started Tue Nov 12 16:30:16 2013

